ATOMIC_SPECIES
H 1.008   H_ONCV_PBE-1.0.upf
O 15.9994 O_ONCV_PBE-1.0.upf

NUMERICAL_ORBITAL
H_gga_6au_100Ry_2s1p.orb
O_gga_7au_100Ry_2s2p1d.orb

LATTICE_CONSTANT
1.8897259886

LATTICE_VECTORS
12.016 0 0
0 12.016 0
0 0 12.016

ATOMIC_POSITIONS
Cartesian

H
0.0
116
0.210241 0.491763 8.824327 0 0 0
3.275699 5.266106 7.707783 0 0 0
7.933965 4.653326 6.714663 0 0 0
7.315651 3.626602 5.640838 0 0 0
0.518234 10.037066 4.909776 0 0 0
1.653631 10.976063 5.266130 0 0 0
0.670842 5.921190 0.444096 0 0 0
1.875628 6.625193 0.817610 0 0 0
9.119597 4.931193 4.120069 0 0 0
10.516549 5.119383 4.845351 0 0 0
2.533190 0.710752 5.865951 0 0 0
3.459277 0.055227 6.681980 0 0 0
8.267786 7.415808 10.444754 0 0 0
7.712892 8.656172 11.095290 0 0 0
6.688056 7.268687 0.272295 0 0 0
7.455503 6.787815 1.456503 0 0 0
5.241474 4.645549 2.849215 0 0 0
1.699668 0.502355 8.935215 0 0 0
8.725649 1.116769 4.640296 0 0 0
9.148225 2.589050 5.056685 0 0 0
1.978767 9.369053 10.295945 0 0 0
2.516646 9.057508 8.859929 0 0 0
10.667434 8.704713 8.228486 0 0 0
9.297222 7.863075 8.385208 0 0 0
6.466468 1.587496 9.348994 0 0 0
5.816973 1.046156 8.091271 0 0 0
6.818326 4.791270 0.332386 0 0 0
5.605518 3.989212 11.916085 0 0 0
10.370562 4.961373 10.099428 0 0 0
8.487891 1.521087 8.175360 0 0 0
5.943870 8.136763 8.975597 0 0 0
4.814294 7.549121 8.112830 0 0 0
5.181228 10.022618 7.380434 0 0 0
4.160583 9.219207 6.538157 0 0 0
2.203633 3.807673 10.066965 0 0 0
1.259388 4.916246 10.744327 0 0 0
3.906532 9.166290 0.833737 0 0 0
4.240278 11.904074 9.027939 0 0 0
10.875602 2.445441 8.582733 0 0 0
11.799898 2.937227 9.705858 0 0 0
9.766275 8.845519 2.698712 0 0 0
9.831931 7.835388 3.600545 0 0 0
3.449556 5.240523 11.183291 0 0 0
4.373219 4.124901 10.747195 0 0 0
0.664007 8.017247 3.226401 0 0 0
11.938680 7.549635 4.322540 0 0 0
10.273332 9.578874 6.308842 0 0 0
11.803983 6.010735 6.572503 0 0 0
4.802413 10.602191 11.153096 0 0 0
4.561451 9.486062 10.215693 0 0 0
2.695431 4.388190 4.737057 0 0 0
1.706606 5.298929 5.402350 0 0 0
8.075784 6.780046 3.225042 0 0 0
9.380141 2.854815 10.710656 0 0 0
10.210021 2.771787 2.283873 0 0 0
5.857123 0.648658 5.694723 0 0 0
6.534304 10.867021 9.217288 0 0 0
7.455573 9.790261 8.488968 0 0 0
3.294998 10.762511 8.969491 0 0 0
7.711239 2.871402 8.201223 0 0 0
4.019749 6.392684 5.564476 0 0 0
6.159829 5.549026 9.424242 0 0 0
4.094462 1.869448 9.947192 0 0 0
2.541121 1.964913 10.396879 0 0 0
3.036393 9.358458 4.379237 0 0 0
4.018186 8.885830 3.269351 0 0 0
1.895298 3.341308 1.519164 0 0 0
3.292221 3.917599 1.885381 0 0 0
7.101090 9.710354 6.701417 0 0 0
7.385612 10.267205 5.329903 0 0 0
3.246101 6.781991 3.016397 0 0 0
4.555758 6.865789 1.129316 0 0 0
1.947417 2.271745 7.456916 0 0 0
3.319942 2.440776 6.916102 0 0 0
4.382503 6.886121 11.658626 0 0 0
9.662077 11.107477 8.228808 0 0 0
8.662387 10.837199 3.429301 0 0 0
7.206443 11.372458 3.684689 0 0 0
1.858552 6.295199 2.531865 0 0 0
0.646178 8.170714 7.942796 0 0 0
7.242836 5.357827 2.965243 0 0 0
5.360523 3.001796 7.099960 0 0 0
6.648237 2.561095 1.770569 0 0 0
7.591663 2.321798 3.016546 0 0 0
5.040320 0.524979 3.451988 0 0 0
5.345173 9.407443 1.123645 0 0 0
10.054298 4.822508 7.756350 0 0 0
8.937368 5.631925 8.398101 0 0 0
7.917911 3.036659 11.092460 0 0 0
4.786777 11.197075 4.181006 0 0 0
9.123028 2.927061 1.237132 0 0 0
2.147518 6.448980 7.676083 0 0 0
11.380561 6.148641 2.609046 0 0 0
10.203506 5.246362 2.343942 0 0 0
5.319791 7.220224 5.395864 0 0 0
7.375589 4.809810 9.936943 0 0 0
10.785996 7.084926 6.593490 0 0 0
5.396710 3.641963 8.488926 0 0 0
7.409162 8.907043 2.778281 0 0 0
6.081488 8.675129 3.627595 0 0 0
7.002150 10.123633 11.988852 0 0 0
7.577210 10.546832 10.675787 0 0 0
5.128633 2.648500 3.622918 0 0 0
9.552348 11.969508 1.741121 0 0 0
7.065794 1.414298 6.209138 0 0 0
4.405159 2.930577 4.878830 0 0 0
9.519554 5.169268 11.323640 0 0 0
9.932388 9.587062 4.699118 0 0 0
4.939431 5.943932 3.591383 0 0 0
8.910722 10.831642 0.982588 0 0 0
1.333420 4.135190 7.184270 0 0 0
0.647821 4.752096 8.400172 0 0 0
0.885686 9.205056 6.913620 0 0 0
10.266786 11.311995 6.884194 0 0 0
11.191638 6.988130 9.753549 0 0 0
0.578823 6.778964 10.422450 0 0 0
O
0.0
58
0.940274 1.112655 9.003936 0 0 0
7.455872 3.829751 6.558378 0 0 0
1.437590 10.024241 5.249453 0 0 0
1.266980 6.557027 0.080150 0 0 0
9.728245 4.492475 4.755040 0 0 0
3.288800 0.138320 5.763890 0 0 0
7.763878 8.220406 10.230523 0 0 0
7.549096 6.940497 0.488666 0 0 0
5.068124 5.596557 2.652138 0 0 0
8.527346 1.888143 5.177844 0 0 0
2.752433 9.076333 9.770576 0 0 0
9.792526 8.524012 7.866950 0 0 0
5.601457 1.206559 9.081703 0 0 0
6.457284 3.911473 0.411812 0 0 0
4.921629 6.353685 5.224853 0 0 0
5.630676 7.356264 8.554410 0 0 0
4.286044 9.643146 7.419336 0 0 0
1.328898 4.134049 10.227005 0 0 0
3.255810 11.728251 8.935494 0 0 0
10.886809 2.915599 9.422228 0 0 0
9.158522 8.439013 3.273308 0 0 0
4.394834 5.027933 11.088654 0 0 0
11.756092 7.909927 3.431719 0 0 0
10.517543 9.914962 5.368774 0 0 0
5.289178 9.984771 10.592972 0 0 0
1.976956 5.037499 4.574313 0 0 0
5.482083 11.710641 3.753161 0 0 0
2.928254 6.034450 7.239407 0 0 0
7.276100 10.715371 8.553065 0 0 0
8.111169 2.172649 8.792961 0 0 0
6.647538 4.756507 9.324204 0 0 0
3.352576 2.505123 10.217624 0 0 0
3.860104 8.802134 4.211905 0 0 0
2.570830 3.975104 1.277219 0 0 0
6.718712 9.735638 5.832394 0 0 0
9.889104 5.684666 10.602849 0 0 0
2.371021 2.557025 6.654631 0 0 0
6.105601 1.243829 6.347310 0 0 0
8.095675 11.299674 4.104359 0 0 0
2.419180 7.050161 2.504289 0 0 0
4.790216 3.391081 7.774060 0 0 0
6.658997 2.533825 2.731068 0 0 0
4.492154 9.932364 1.064567 0 0 0
9.805713 5.706925 7.948773 0 0 0
8.813349 3.335691 11.297174 0 0 0
9.329518 2.501139 2.099364 0 0 0
11.141418 5.289541 2.242904 0 0 0
8.121298 5.832220 3.031374 0 0 0
11.549892 6.850115 6.036543 0 0 0
6.452111 8.637783 2.689713 0 0 0
7.683165 10.585857 11.597861 0 0 0
4.319602 3.168563 3.913020 0 0 0
10.216289 11.752853 7.773219 0 0 0
4.672970 7.454343 0.396287 0 0 0
9.570169 11.032753 1.669397 0 0 0
0.527027 4.606877 7.447903 0 0 0
0.833102 9.094549 7.853159 0 0 0
0.118245 6.795802 9.570251 0 0 0