&GLOBAL
  PROJECT PBE
  PRINT_LEVEL LOW
  RUN_TYPE ENERGY_FORCE
&END GLOBAL

&FORCE_EVAL
  METHOD Quickstep
  &PRINT
    &FORCES ON
    &END FORCES
  &END PRINT  
  &SUBSYS
    &CELL 
      A    12.02800000     0.00000000     0.00000000
      B     0.00000000    12.02800000     0.00000000
      C     0.00000000     0.00000000    12.02800000
      PERIODIC XYZ 
    &END CELL
	&TOPOLOGY
	  COORD_FILE_FORMAT XYZ
	  COORD_FILE_NAME ../geo.xyz
	&END TOPOLOGY
    &KIND O    
      ELEMENT O 
      BASIS_SET DZVP-MOLOPT-SR-GTH-q6
      POTENTIAL GTH-PBE
    &END KIND
    &KIND H    
      ELEMENT H 
      BASIS_SET DZVP-MOLOPT-SR-GTH-q1
      POTENTIAL GTH-PBE
    &END KIND
    &KIND N    
      ELEMENT N 
      BASIS_SET DZVP-MOLOPT-SR-GTH-q5
      POTENTIAL GTH-PBE
    &END KIND
    &KIND C    
      ELEMENT C 
      BASIS_SET DZVP-MOLOPT-SR-GTH-q4
      POTENTIAL GTH-PBE
    &END KIND
    &KIND Na   
      ELEMENT Na
      BASIS_SET DZVP-MOLOPT-SR-GTH-q9
      POTENTIAL GTH-PBE
    &END KIND
    &KIND Cl   
      ELEMENT Cl
      BASIS_SET DZVP-MOLOPT-SR-GTH-q7
      POTENTIAL GTH-PBE
    &END KIND	
  &END SUBSYS

  &DFT
    BASIS_SET_FILE_NAME  BASIS_MOLOPT
    POTENTIAL_FILE_NAME  POTENTIAL
    CHARGE    0 
    MULTIPLICITY    1 
    &QS
      EPS_DEFAULT 1.0E-11 
    &END QS
    &POISSON
      PERIODIC XYZ 
      PSOLVER PERIODIC 
    &END POISSON
    &XC
      &XC_FUNCTIONAL PBE
      &END XC_FUNCTIONAL
    &END XC
    &MGRID
      CUTOFF  500
      REL_CUTOFF  60
    &END MGRID
    &SCF
      MAX_SCF 1
      EPS_SCF 5.0E-06 
      &DIAGONALIZATION
        ALGORITHM STANDARD 
      &END DIAGONALIZATION
      &MIXING 
        METHOD BROYDEN_MIXING 
        ALPHA 0.4 
        NBROYDEN 8 
      &END MIXING
      &PRINT
        &RESTART 
          BACKUP_COPIES 0 
        &END RESTART
      &END PRINT
    &END SCF
  &END DFT
&END FORCE_EVAL
