INPUT_PARAMETERS
#Parameters (1.General)
suffix                  abacus
pseudo_dir              ./pseudo_dir
orbital_dir             ./orbital_dir
calculation             gen_bessel # calculation type should be gen_bessel
ntype                   4
nbands                  277
symmetry                0

#Parameters (2.Iteration)
ecutwfc                 100        # kinetic energy cutoff in unit Ry; should be consistent with that set for ABACUS SCF calculation
scf_thr                 1e-8
scf_nmax                128

#Parameters (3.Basis)
basis_type              pw
gamma_only              1

#Parameters (4.Smearing)
smearing_method         gaussian
smearing_sigma          0.1

#Parameters (5.Mixing)
mixing_type             pulay
mixing_beta             0.4

#Parameters (6. Bessel function)
bessel_lmax			    2         # maximum angular momentum for projectors; 2 is recommended
bessel_rcut             5         # radial cutoff in unit Bohr; 5 or 6 is recommended
bessel_tol              1.0e-12

