ATOMIC_SPECIES
H 1.008   H_ONCV_PBE-1.0.upf
O 15.9994 O_ONCV_PBE-1.0.upf
N 14.007  N_ONCV_PBE-1.0.upf
C 12.011  C_ONCV_PBE-1.0.upf

NUMERICAL_ORBITAL
H_gga_6au_100Ry_2s1p.orb
O_gga_7au_100Ry_2s2p1d.orb
N_gga_7au_100Ry_2s2p1d.orb
C_gga_7au_100Ry_2s2p1d.orb

LATTICE_CONSTANT
1.8897259886

LATTICE_VECTORS
12.028 0 0
0 12.028 0
0 0 12.028

ATOMIC_POSITIONS
Cartesian

H
0
113
10.484900 3.074143 7.237175      1 1 1
11.470311 11.003229 0.488341     1 1 1
4.058301 1.244297 10.861234      1 1 1
3.585275 2.493688 11.538435      1 1 1
5.484697 4.583033 6.251043       1 1 1
9.643750 10.030562 1.788516      1 1 1
2.713673 4.741648 3.611327       1 1 1
2.670778 4.300143 2.174294       1 1 1
3.177244 2.354060 3.275009       1 1 1
4.242339 1.837349 2.293681       1 1 1
5.556154 6.302084 7.490718       1 1 1
1.711821 6.852675 3.117062       1 1 1
11.750349 4.088391 1.511969      1 1 1
0.294081 3.394183 0.268065       1 1 1
7.350659 11.466993 1.230553      1 1 1
6.647434 10.568925 2.287113      1 1 1
9.929923 11.385320 2.637578      1 1 1
9.158962 4.384104 11.766889      1 1 1
5.149095 8.672491 11.533934      1 1 1
5.085541 9.392508 10.214571      1 1 1
0.795993 11.578526 8.499176      1 1 1
1.848097 11.618224 9.659966      1 1 1
11.285648 5.904186 8.251709      1 1 1
10.793449 3.872907 9.115780      1 1 1
8.523953 10.078845 6.285140      1 1 1
7.746755 11.325424 6.279963      1 1 1
5.253065 11.491762 5.302273      1 1 1
5.424459 0.440484 6.477180       1 1 1
6.750039 10.119482 8.226614      1 1 1
7.354972 8.671989 7.848665       1 1 1
0.644455 10.350385 3.882207      1 1 1
11.486888 9.757147 4.245734      1 1 1
7.793169 7.566114 9.602539       1 1 1
9.154870 7.669759 10.277787      1 1 1
1.390810 10.930776 1.777956      1 1 1
1.649927 9.406639 1.799818       1 1 1
0.228559 6.002224 4.784712       1 1 1
10.909422 5.161503 4.903618      1 1 1
6.141845 11.308792 11.258644     1 1 1
5.238585 11.798188 0.408462      1 1 1
2.798771 11.825076 7.249232      1 1 1
5.785867 5.465284 3.660708       1 1 1
4.340678 5.882252 4.957059       1 1 1
3.511309 4.661574 5.373953       1 1 1
7.212711 7.805517 11.971887      1 1 1
10.598510 1.654460 9.665174      1 1 1
9.643573 8.400467 7.793028       1 1 1
5.996808 6.067095 8.883626       1 1 1
2.910331 0.515334 5.690068       1 1 1
2.013369 11.496864 4.984093      1 1 1
7.856411 8.955382 3.528854       1 1 1
7.500228 7.525793 3.704381       1 1 1
8.989779 8.207860 1.511197       1 1 1
8.368102 6.945162 5.397798       1 1 1
6.863938 6.428153 11.898721      1 1 1
5.257915 11.592036 8.715105      1 1 1
3.561382 0.727778 8.238643       1 1 1
11.664139 7.304322 7.529362      1 1 1
11.582942 7.175795 1.115611      1 1 1
11.504402 5.956143 0.217400      1 1 1
9.837080 7.506733 0.565288       1 1 1
9.672397 8.065307 6.319191       1 1 1
6.890275 4.256326 10.904741      1 1 1
7.378229 4.559404 9.496466       1 1 1
9.622339 1.402280 4.225514       1 1 1
0.051317 1.369038 9.536405       1 1 1
5.105662 8.063862 8.321332       1 1 1
4.069465 8.955448 7.677946       1 1 1
10.597209 4.595482 10.392962     1 1 1
11.920041 11.496498 11.117159    1 1 1
7.290884 6.503335 6.378965       1 1 1
6.179358 0.759696 9.189317       1 1 1
9.266873 5.334219 0.851068       1 1 1
10.829063 6.223864 3.063921      1 1 1
8.268876 2.467161 5.497304       1 1 1
7.679023 1.070879 5.663517       1 1 1
6.012228 6.593275 2.527356       1 1 1
4.673564 8.887920 2.389570       1 1 1
11.525167 2.612505 3.321405      1 1 1
0.709573 3.435302 3.579788       1 1 1
11.602043 0.259155 3.009517      1 1 1
0.670525 1.043002 2.440031       1 1 1
6.275406 1.820155 3.913431       1 1 1
0.041025 1.332217 6.390866       1 1 1
2.412249 1.748231 1.449627       1 1 1
1.348912 1.080371 0.527654       1 1 1
3.031086 7.825818 4.632011       1 1 1
3.162200 9.404326 4.430367       1 1 1
9.841884 4.051439 3.618627       1 1 1
8.285664 3.907351 3.861653       1 1 1
9.201770 11.876747 4.555947      1 1 1
0.369107 11.974131 5.825708      1 1 1
11.573609 5.950590 6.623889      1 1 1
5.847509 3.175835 3.583670       1 1 1
3.423502 11.393342 1.690436      1 1 1
6.357775 8.696236 6.041167       1 1 1
1.409791 3.063406 5.887132       1 1 1
2.882650 3.120777 5.978702       1 1 1
10.436166 3.436425 5.783714      1 1 1
8.606066 4.945771 7.410717       1 1 1
3.566789 10.758177 11.163972     1 1 1
2.300998 11.309641 11.915282     1 1 1
3.667250 3.069691 8.710980       1 1 1
4.613689 3.167345 7.541203       1 1 1
3.910540 11.914935 2.979370      1 1 1
5.289170 8.274123 5.141018       1 1 1
1.038851 7.935432 3.888886       1 1 1
8.119070 3.553213 7.761944       1 1 1
5.672645 9.407246 1.228414       1 1 1
1.614933 6.607171 8.706779       1 1 1
1.548814 5.062969 8.057703       1 1 1
6.586763 3.613778 6.359949       1 1 1
9.250601 6.605148 2.780765       1 1 1
O
0
56
0.180291 11.374112 0.053267      1 1 1
3.768024 2.174536 10.628131      1 1 1
10.342806 10.680617 2.058312     1 1 1
2.244639 4.905320 2.787901       1 1 1
3.851440 2.708189 2.601271       1 1 1
0.945913 7.390720 3.065495       1 1 1
11.494422 3.830739 0.617624      1 1 1
7.523302 10.828704 1.940855      1 1 1
8.671793 5.177227 0.078589       1 1 1
5.071254 9.581878 11.207531      1 1 1
0.865173 11.583666 9.536937      1 1 1
5.940704 4.051776 6.909829       1 1 1
8.351297 10.808984 5.678984      1 1 1
5.604923 0.294497 5.571311       1 1 1
7.361770 9.603154 7.663898       1 1 1
0.327352 9.822184 4.607044       1 1 1
8.645948 7.930974 9.511052       1 1 1
1.809726 10.260503 2.250703      1 1 1
11.359603 5.980850 5.213425      1 1 1
5.966165 0.055805 11.827919      1 1 1
6.381876 5.889605 3.057480       1 1 1
4.332818 4.938308 4.917166       1 1 1
6.465611 7.289319 11.641547      1 1 1
6.181550 6.644470 8.180169       1 1 1
2.900225 11.918047 4.955104      1 1 1
8.310312 8.078780 3.576694       1 1 1
9.210190 8.252365 0.564211       1 1 1
6.113371 11.996428 8.554276      1 1 1
3.307932 11.810749 8.025068      1 1 1
11.637417 6.934719 0.207001      1 1 1
10.194954 8.420763 6.998714      1 1 1
6.600636 4.368893 10.014647      1 1 1
11.421612 2.059200 9.449107      1 1 1
4.767688 8.976881 8.347343       1 1 1
10.907371 4.784377 9.526304      1 1 1
8.206622 6.348111 6.099020       1 1 1
10.059648 6.075245 2.483107      1 1 1
8.095729 1.815997 6.154490       1 1 1
5.503339 8.740319 1.858320       1 1 1
11.790485 3.518930 3.338646      1 1 1
0.489599 0.504263 3.179179       1 1 1
0.428813 0.507684 6.617272       1 1 1
1.584087 1.756903 1.084661       1 1 1
3.522171 8.529826 4.184912       1 1 1
9.178012 3.762822 4.207783       1 1 1
9.656976 0.508831 3.945952       1 1 1
6.514988 2.753125 4.086813       1 1 1
6.179245 8.033854 5.427452       1 1 1
2.178459 3.331331 5.416617       1 1 1
11.043323 3.176706 6.489694      1 1 1
3.126760 11.531044 11.468939     1 1 1
3.720864 2.839962 7.757488       1 1 1
4.131446 11.971079 2.086075      1 1 1
8.868537 4.181762 7.901617       1 1 1
1.902531 6.349129 5.376938       1 1 1
3.313153 7.146598 6.941772       1 1 1
N
0
1
11.912054 6.321836 7.581229      1 1 1
C
0
2
1.346691 6.115960 7.752469       1 1 1
2.210305 6.659968 6.549366       1 1 1